* ENCODING=ISO-8859-1
NAME          milp_10_20_50_2310
ROWS
 N  OBJROW  
 L  R0000000
 L  R0000001
 L  R0000002
 L  R0000003
 L  R0000004
 L  R0000005
 L  R0000006
 L  R0000007
 L  R0000008
 L  R0000009
COLUMNS
    MARK0000  'MARKER'                 'INTORG'
    C0000000  OBJROW                         48
    C0000000  R0000000                       35
    C0000000  R0000001                      -32
    C0000000  R0000002                       -4
    C0000000  R0000003                      -35
    C0000000  R0000004                       30
    C0000000  R0000005                       21
    C0000000  R0000007                      -10
    C0000000  R0000009                       12
    C0000001  OBJROW                        -30
    C0000001  R0000000                      -32
    C0000001  R0000001                       -4
    C0000001  R0000002                      -12
    C0000001  R0000003                      -25
    C0000001  R0000005                       28
    C0000001  R0000006                       22
    C0000001  R0000007                       48
    C0000001  R0000009                       19
    C0000002  OBJROW                         45
    C0000002  R0000000                      -36
    C0000002  R0000003                        4
    C0000002  R0000006                       45
    C0000002  R0000007                      -19
    C0000002  R0000008                        8
    C0000002  R0000009                      -17
    C0000003  OBJROW                        -10
    C0000003  R0000001                       -9
    C0000003  R0000002                       47
    C0000003  R0000003                       25
    C0000003  R0000004                       46
    C0000003  R0000005                      -41
    C0000003  R0000007                      -23
    C0000003  R0000008                       36
    C0000003  R0000009                       50
    C0000004  OBJROW                         -5
    C0000004  R0000000                       -6
    C0000004  R0000002                       14
    C0000004  R0000003                      -47
    C0000004  R0000005                       29
    C0000004  R0000006                        3
    C0000004  R0000007                       42
    C0000004  R0000008                      -35
    C0000004  R0000009                       -6
    C0000005  OBJROW                        -31
    C0000005  R0000000                      -25
    C0000005  R0000001                      -17
    C0000005  R0000002                      -12
    C0000005  R0000003                      -34
    C0000005  R0000004                      -47
    C0000005  R0000005                       21
    C0000005  R0000007                       -6
    C0000005  R0000008                       40
    C0000005  R0000009                      -13
    C0000006  OBJROW                        -42
    C0000006  R0000000                      -11
    C0000006  R0000001                      -30
    C0000006  R0000002                      -13
    C0000006  R0000005                       11
    C0000006  R0000006                      -28
    C0000006  R0000007                      -32
    C0000006  R0000008                       31
    C0000006  R0000009                      -43
    C0000007  OBJROW                         33
    C0000007  R0000000                      -22
    C0000007  R0000002                      -42
    C0000007  R0000003                       15
    C0000007  R0000004                      -48
    C0000007  R0000006                      -39
    C0000007  R0000007                       18
    C0000007  R0000008                      -45
    C0000007  R0000009                       34
    C0000008  OBJROW                         40
    C0000008  R0000000                      -41
    C0000008  R0000001                       28
    C0000008  R0000002                       12
    C0000008  R0000006                       42
    C0000008  R0000007                      -34
    C0000008  R0000009                       38
    C0000009  OBJROW                        -34
    C0000009  R0000000                       24
    C0000009  R0000001                       -3
    C0000009  R0000002                      -32
    C0000009  R0000005                      -31
    C0000009  R0000007                      -19
    C0000009  R0000008                      -10
    C0000009  R0000009                      -17
    C0000010  OBJROW                         20
    C0000010  R0000000                       -7
    C0000010  R0000001                       20
    C0000010  R0000002                      -22
    C0000010  R0000003                       49
    C0000010  R0000005                        9
    C0000010  R0000006                       10
    C0000010  R0000008                      -10
    C0000010  R0000009                       29
    C0000011  OBJROW                         14
    C0000011  R0000000                      -14
    C0000011  R0000001                       38
    C0000011  R0000002                        1
    C0000011  R0000007                       43
    C0000011  R0000008                        6
    C0000011  R0000009                       25
    C0000012  OBJROW                        -35
    C0000012  R0000000                        5
    C0000012  R0000002                      -30
    C0000012  R0000005                       32
    C0000012  R0000006                       41
    C0000012  R0000007                       13
    C0000012  R0000008                       44
    C0000012  R0000009                      -50
    C0000013  OBJROW                         11
    C0000013  R0000000                       26
    C0000013  R0000001                      -18
    C0000013  R0000002                      -10
    C0000013  R0000003                       26
    C0000013  R0000005                      -50
    C0000013  R0000007                      -48
    C0000013  R0000009                      -24
    C0000014  OBJROW                         18
    C0000014  R0000000                       26
    C0000014  R0000001                       22
    C0000014  R0000002                      -12
    C0000014  R0000004                      -11
    C0000014  R0000006                      -35
    C0000014  R0000007                       21
    C0000014  R0000008                       24
    C0000014  R0000009                       45
    C0000015  OBJROW                        -41
    C0000015  R0000000                        7
    C0000015  R0000001                      -10
    C0000015  R0000002                       26
    C0000015  R0000005                       -2
    C0000015  R0000007                       -8
    C0000016  OBJROW                         10
    C0000016  R0000000                        6
    C0000016  R0000001                       37
    C0000016  R0000002                       47
    C0000016  R0000005                       13
    C0000016  R0000009                       13
    C0000017  OBJROW                        -15
    C0000017  R0000000                      -19
    C0000017  R0000001                      -27
    C0000017  R0000002                       40
    C0000017  R0000003                       25
    C0000017  R0000006                      -41
    C0000017  R0000007                      -40
    C0000017  R0000009                       32
    C0000018  OBJROW                         35
    C0000018  R0000001                       16
    C0000018  R0000002                       -3
    C0000018  R0000003                      -29
    C0000018  R0000004                      -14
    C0000018  R0000005                        6
    C0000018  R0000007                      -29
    C0000018  R0000009                      -17
    C0000019  OBJROW                         26
    C0000019  R0000000                       46
    C0000019  R0000001                      -11
    C0000019  R0000002                       34
    C0000019  R0000004                      -42
    C0000019  R0000005                       10
    C0000019  R0000006                       37
    C0000019  R0000007                      -16
    C0000019  R0000009                        1
    MARK0001  'MARKER'                 'INTEND'
RHS
    rhs       R0000000                     -334
    rhs       R0000001                        9
    rhs       R0000002                      -93
    rhs       R0000003                      178
    rhs       R0000004                      -58
    rhs       R0000005                      146
    rhs       R0000006                       63
    rhs       R0000007                      -55
    rhs       R0000008                      161
    rhs       R0000009                      103
BOUNDS
 UP bnd       C0000000                     1500
 UP bnd       C0000001                     1500
 UP bnd       C0000002                     1500
 UP bnd       C0000003                     1500
 UP bnd       C0000004                     1500
 UP bnd       C0000005                     1500
 UP bnd       C0000006                     1500
 UP bnd       C0000007                     1500
 UP bnd       C0000008                     1500
 UP bnd       C0000009                     1500
 UP bnd       C0000010                     1500
 UP bnd       C0000011                     1500
 UP bnd       C0000012                     1500
 UP bnd       C0000013                     1500
 UP bnd       C0000014                     1500
 UP bnd       C0000015                     1500
 UP bnd       C0000016                     1500
 UP bnd       C0000017                     1500
 UP bnd       C0000018                     1500
 UP bnd       C0000019                     1500
ENDATA
